c Random generated cnf formula, satisfiable: true
p cnf 10 50
4 -10 8 0
4 2 5 0
-5 7 -10 0
6 -3 -9 0
-9 -3 -1 0
3 1 -5 0
6 -10 8 0
-2 4 -10 0
-4 7 -3 0
5 9 10 0
-9 -2 6 0
6 -3 -10 0
-4 -5 -8 0
9 -4 -5 0
10 -2 5 0
-3 -2 -4 0
-2 8 6 0
10 -2 9 0
5 -2 9 0
-1 -9 -10 0
8 4 -1 0
-7 -6 1 0
-8 -4 -5 0
5 -2 -7 0
8 -9 -4 0
9 7 1 0
-10 -2 6 0
2 -5 4 0
-6 8 9 0
2 -9 -7 0
9 -6 4 0
-9 7 -2 0
-4 -5 1 0
-3 -1 8 0
8 9 -3 0
-6 -7 -9 0
-2 -10 -8 0
-6 -7 -5 0
5 -10 6 0
-10 1 -9 0
1 -6 4 0
9 -1 8 0
-9 8 6 0
1 8 7 0
-3 -10 -8 0
-2 4 -5 0
1 -10 6 0
1 -3 10 0
-8 7 2 0
-3 5 -1 0
